min: 76 x1_1 + 16 x1_2 + 34 x1_3 + 13 x1_4 + 15 x1_5 + 7 x1_6 + 86 x2_1 + 60 x2_2 + 20 x2_3 + 6 x2_4 + 41 x2_5 + 38 x2_6 + 98 x3_1 + 9 x3_2 + 69 x3_3 + 82 x3_4 + 66 x3_5 + 69 x3_6 + 3 x4_1 + 79 x4_2 + 30 x4_3 + 22 x4_4 + 71 x4_5 + 90 x4_6 + 17 x5_1 + 14 x5_2 + 56 x5_3 + 31 x5_4 + 50 x5_5 + 24 x5_6 + 68 x6_1 + 97 x6_2 + 46 x6_3 + 42 x6_4 + 65 x6_5 + 72 x6_6;

x1_1 + x1_2 + x1_3 + x1_4 + x1_5 + x1_6 = 1309;
x2_1 + x2_2 + x2_3 + x2_4 + x2_5 + x2_6 = 1316;
x3_1 + x3_2 + x3_3 + x3_4 + x3_5 + x3_6 = 2215;
x4_1 + x4_2 + x4_3 + x4_4 + x4_5 + x4_6 = 3729;
x5_1 + x5_2 + x5_3 + x5_4 + x5_5 + x5_6 = 4738;
x6_1 + x6_2 + x6_3 + x6_4 + x6_5 + x6_6 = 1075;

x1_1 + x2_1 + x3_1 + x4_1 + x5_1 + x6_1 = 4237;
x1_2 + x2_2 + x3_2 + x4_2 + x5_2 + x6_2 = 3843;
x1_3 + x2_3 + x3_3 + x4_3 + x5_3 + x6_3 = 2211;
x1_4 + x2_4 + x3_4 + x4_4 + x5_4 + x6_4 = 3556;
x1_5 + x2_5 + x3_5 + x4_5 + x5_5 + x6_5 = 2709;
x1_6 + x2_6 + x3_6 + x4_6 + x5_6 + x6_6 = 3403;

int x1_1, x1_2, x1_3, x1_4, x1_5, x1_6, x2_1, x2_2, x2_3, x2_4, x2_5, x2_6, x3_1, x3_2, x3_3, x3_4, x3_5, x3_6, x4_1, x4_2, x4_3, x4_4, x4_5, x4_6, x5_1, x5_2, x5_3, x5_4, x5_5, x5_6, x6_1, x6_2, x6_3, x6_4, x6_5, x6_6;